Solving original (integer) problem with strategy gdp.hull...
--- Job model.gms Start 02/14/26 20:05:42 52.2.0 d8e408be LEX-LEG x86 64bit/Linux
--- Applying:
    /package/gams/52.2/gmsprmun.txt
--- GAMS Parameters defined
    Input /local/scratch/a/sgusev/repos/k_means/data/gams_gurobi_gdp.hull/no_mode/2026-02-14_20-05-42/original/model.gms
    Output /local/scratch/a/sgusev/repos/k_means/data/gams_gurobi_gdp.hull/no_mode/2026-02-14_20-05-42/original/output.lst
    ScrDir /local/scratch/a/sgusev/repos/k_means/data/gams_gurobi_gdp.hull/no_mode/2026-02-14_20-05-42/original/225a/
    SysDir /package/gams/52.2/
    CurDir /local/scratch/a/sgusev/repos/k_means/data/gams_gurobi_gdp.hull/no_mode/2026-02-14_20-05-42/original/
    LogOption 3
    AppendLog 1
Licensee: David Bernal / SECQUOIA Research Group         G251008+0003Ac-GEN
          Purdue University, Davidson School of Chemical EngineeringDCE4838
          225a/gamslice.dat
          5a82958a-fbca-4a23
          node:66820903 mem:995 cores:48 ipport:41035 v:2                  
          Evaluation license: Not for commercial or production use
          The time-limited license stops working on : Jun 30, 2027
System information: 48 physical cores and 995 Gb physical memory detected
GAMS 52.2.0   Copyright (C) 1987-2025 GAMS Development. All rights reserved
--- Starting compilation
--- model.gms(4524) 2 Mb
--- $echo File /local/scratch/a/sgusev/repos/k_means/data/gams_gurobi_gdp.hull/no_mode/2026-02-14_20-05-42/original/gurobi.opt
--- model.gms(6601) 2 Mb
--- Starting execution: elapsed 0:00:00.022
--- model.gms(4533) 3 Mb
--- Generating MINLP model GAMS_MODEL
--- model.gms(4537) 6 Mb
---   1,375 rows  636 columns  3,329 non-zeroes
---   2,900 nl-code  350 nl-non-zeroes
---   50 discrete-columns
--- Range statistics (absolute non-zero finite values)
--- RHS       [min, max] : [ 9.720E-05, 1.000E+00] - Zero values observed as well
--- Bound     [min, max] : [ 1.000E+00, 1.000E+02] - Zero values observed as well
--- Matrix    [min, max] : [ 5.719E-02, 1.000E+02]
--- model.gms(4537) 4 Mb
--- Executing GUROBI (Solvelink=5): elapsed 0:00:00.029
Reading parameter(s) from "/local/scratch/a/sgusev/repos/k_means/data/gams_gurobi_gdp.hull/no_mode/2026-02-14_20-05-42/original/gurobi.opt"
>>  NonConvex 2
>>  Threads 1
>>  MIPGap 1e-06
>>  MIPGapAbs 1e-10
>>  FeasibilityTol 1e-06
>>  OptimalityTol 1e-06
>>  IntFeasTol 1e-05
Finished reading from "/local/scratch/a/sgusev/repos/k_means/data/gams_gurobi_gdp.hull/no_mode/2026-02-14_20-05-42/original/gurobi.opt"

... GRB_LICENSE_FILE = /local/scratch/a/sgusev/gurobi.lic

    Gurobi           52.2.0 d8e408be Dec 8, 2025           LEG x86 64bit/Linux    

... GAMS/Gurobi Link license.
... GMO Q Extraction (ThreePass): 0.00s

    Gurobi Optimizer version 13.0.0 build v13.0.0rc1 (linux64 - "Oracle Linux Server 9.7")
    
    CPU model: AMD EPYC 7643 48-Core Processor, instruction set [SSE2|AVX|AVX2]
    Thread count: 48 physical cores, 96 logical processors, using up to 1 threads
    
    Non-default parameters:
    TimeLimit  300
    MIPGap  1e-06
    LogToConsole  0
    NonConvex  2
    Threads  1
    
    Optimize a model with 1374 rows, 685 columns and 3018 nonzeros (Min)
    Model fingerprint: 0x2731240d
    Model has 10 linear objective coefficients
    Model has 50 general nonlinear constraints (600 nonlinear terms)
    Variable types: 635 continuous, 50 integer (0 binary)
    Coefficient statistics:
      Matrix range     [1e+00, 1e+02]
      Objective range  [1e+00, 1e+00]
      Bounds range     [1e+00, 1e+02]
      RHS range        [1e+00, 1e+00]
      NLCon coe range  [1e-04, 1e+00]
    Presolve model has 50 nlconstr
    Added 1250 variables to disaggregate expressions
    Presolve removed 300 rows and 260 columns
    Presolve time: 0.01s
    Presolved: 3924 rows, 1676 columns, 10008 nonzeros
    Presolved model has 600 bilinear constraint(s)
    
    Solving non-convex MIQCP to global optimality
    
    Variable types: 1626 continuous, 50 integer (50 binary)
    Found heuristic solution: objective 13.7425627
    
    Root relaxation: objective 0.000000e+00, 1288 iterations, 0.00 seconds (0.00 work units)
    
        Nodes    |    Current Node    |     Objective Bounds      |     Work
     Expl Unexpl |  Obj  Depth IntInf | Incumbent    BestBd   Gap | It/Node Time
    
         0     0    0.00000    0  525   13.74256    0.00000   100%     -    0s
         0     0    0.00000    0  599   13.74256    0.00000   100%     -    0s
         0     0    0.00000    0  496   13.74256    0.00000   100%     -    0s
         0     0    0.00000    0 1100   13.74256    0.00000   100%     -    0s
         0     0    0.00000    0  711   13.74256    0.00000   100%     -    0s
         0     0    0.00000    0  711   13.74256    0.00000   100%     -    0s
         0     0    0.00000    0  392   13.74256    0.00000   100%     -    0s
         0     0    0.00000    0  228   13.74256    0.00000   100%     -    0s
         0     0    0.00000    0  225   13.74256    0.00000   100%     -    0s
         0     0    0.00000    0  350   13.74256    0.00000   100%     -    0s
         0     0    0.00000    0  175   13.74256    0.00000   100%     -    0s
         0     0    0.00000    0  175   13.74256    0.00000   100%     -    0s
         0     0    0.00000    0  158   13.74256    0.00000   100%     -    0s
    H    0     0                      12.8394923    0.00000   100%     -    0s
    H    0     0                      10.3508816    0.00000   100%     -    0s
    H    0     0                      10.2286692    0.00000   100%     -    0s
    H    0     0                       6.9189386    0.00000   100%     -    0s
         0     2    0.00000    0  158    6.91894    0.00000   100%     -    0s
    H    1     1                       5.3962564    0.00000   100%   0.0    0s
    H    5     5                       3.9364100    0.00000   100%  29.2    0s
    H   21    21                       3.2231996    0.00000   100%  31.9    0s
       369   310    1.78204   34   83    3.22320    0.00000   100%  23.5    5s
    H  658   411                       3.2231996    0.00000   100%  26.8    6s
    H  661   392                       3.2231996    0.00000   100%  26.6    6s
    H  693   393                       3.2218683    0.00000   100%  35.4    8s
    H  693   374                       3.2032046    0.00000   100%  35.4    8s
    H  693   355                       3.0800038    0.00000   100%  35.4    8s
    H  693   338                       3.0428384    0.00000   100%  35.4    8s
    H  693   322                       3.0392465    0.00000   100%  35.4    8s
    H  693   306                       3.0259905    0.00000   100%  35.4    8s
    H  693   291                       2.9838047    0.00000   100%  35.4    8s
    H  693   277                       2.9561965    0.00000   100%  35.4    8s
    H  702   269                       2.9561934    0.00000   100%  35.1    8s
    H  709   260                       2.9561911    0.00000   100%  34.8    8s
    H  709   248                       2.9561911    0.00000   100%  34.8    8s
    H  715   240                       2.8194081    0.00000   100%  34.6    8s
    H  715   229                       2.8067004    0.00000   100%  34.6    8s
    H  716   219                       2.7430256    0.00000   100%  34.6    8s
    H  722   213                       2.7429590    0.00000   100%  34.6    8s
    H  722   204                       2.7428654    0.00000   100%  34.6    8s
    H  722   195                       2.7294985    0.00000   100%  34.6    8s
    H  733   191                       2.7294985    0.00000   100%  35.2    8s
    H  743   187                       2.7294985    0.00000   100%  35.4    8s
    H  797   206                       2.7239384    0.00000   100%  35.2    9s
    H  797   198                       2.7183795    0.00000   100%  35.2    9s
    H  797   191                       2.7180820    0.00000   100%  35.2    9s
    H  834   184                       2.7178649    0.00000   100%  34.2    9s
    H  978   245                       2.7101742    0.00000   100%  33.9    9s
    H  978   239                       2.6809295    0.00000   100%  33.9    9s
    H  978   234                       2.6798403    0.00000   100%  33.9    9s
    H  978   234                       2.6790736    0.00000   100%  33.9    9s
      1008   264 infeasible   55         2.67907    0.00000   100%  33.6   10s
    H 1029   275                       2.6681077    0.00000   100%  33.5   10s
    H 1029   275                       2.6672289    0.00000   100%  33.5   10s
    H 1029   275                       2.6633711    0.00000   100%  33.5   10s
    H 1029   275                       2.6630729    0.00000   100%  33.5   10s
    H 1029   275                       2.6630428    0.00000   100%  33.5   10s
    H 1130   337                       2.6630227    0.00000   100%  31.8   10s
    H 1306   451                       2.6630187    0.00000   100%  29.7   10s
    H 1306   451                       2.6630107    0.00000   100%  29.7   10s
    H 1482   590                       2.6630057    0.00000   100%  29.2   11s
    H 1482   590                       2.6629968    0.00000   100%  29.2   11s
    H 1642   681                       2.6629968    0.00000   100%  28.2   11s
    H 1695   722                       2.6629950    0.00000   100%  27.7   11s
    H 2699  1387                       2.6595130    0.00000   100%  24.8   14s
    H 2699  1387                       2.6579835    0.00000   100%  24.8   14s
    H 2699  1387                       2.6579037    0.00000   100%  24.8   14s
    H 2708  1392                       2.6579037    0.00000   100%  24.7   14s
      2820  1432    2.20072   56   80    2.65790    0.00000   100%  24.6   15s
    H 3115  1529                       2.6579021    0.00000   100%  23.9   15s
    H 3395  1626                       2.6579010    0.00000   100%  24.1   16s
    H 3957  1820                       2.6579010    0.00000   100%  25.0   18s
    H 3990  1829                       2.6578988    0.00000   100%  25.0   18s
    H 4111  1867                       2.6578988    0.00000   100%  25.0   18s
    H 4111  1867                       2.6578984    0.00000   100%  25.0   18s
      4696  2080    1.44372   35  102    2.65790    0.00000   100%  24.6   20s
    H 5114  2094                       2.6578977    0.00000   100%  24.9   22s
    H 5635  2203                       2.6578963    0.00000   100%  25.5   24s
    H 5892  2215                       2.5281676    0.00000   100%  25.0   24s
    H 5999  2184                       2.5281676    0.00000   100%  24.6   24s
    H 5999  2094                       2.5281676    0.00000   100%  24.6   24s
      6085  2115    1.24047   70   69    2.52817    0.00000   100%  24.4   25s
    H 8002  2386                       2.5281671    0.00000   100%  23.3   28s
    H 8106  2306                       2.5281671    0.00000   100%  23.3   29s
      8525  2400    1.53410   60   80    2.52817    0.00000   100%  23.3   30s
     10539  2756    0.39181   41  127    2.52817    0.00000   100%  24.9   35s
    H12148  3213                       2.5281658    0.00000   100%  26.1   39s
    H12148  3213                       2.5281658    0.00000   100%  26.1   39s
    H12253  3237                       2.5281653    0.00000   100%  26.2   39s
    H12253  3237                       2.5281652    0.00000   100%  26.2   39s
     12532  3344    1.81432   57   78    2.52817    0.00001   100%  26.2   40s
    H13093  3524                       2.5281652    0.00006   100%  26.1   41s
    H13146  3549                       2.5281652    0.00006   100%  26.1   41s
    H14413  3989                       2.5281652    0.00095   100%  26.4   43s
     15085  4235    0.51516   44  124    2.52817    0.00490   100%  26.5   45s
    H15413  4308                       2.5281647    0.01507  99.4%  26.6   45s
     17428  4870    2.06346   52   75    2.52816    0.08099  96.8%  27.0   50s
     20228  5398    1.46116   36  124    2.52816    0.18391  92.7%  27.0   55s
     23030  5975 infeasible   49         2.52816    0.24221  90.4%  26.9   60s
     25755  6568    2.43442   70   78    2.52816    0.34316  86.4%  26.8   65s
     28568  7107    0.51935   69   83    2.52816    0.40765  83.9%  26.5   70s
     31427  7676     cutoff   54         2.52816    0.45954  81.8%  26.5   75s
     34294  8206    1.83612   63   89    2.52816    0.52051  79.4%  26.4   80s
     37317  8782 infeasible   37         2.52816    0.58982  76.7%  26.1   85s
     40243  9588    0.64117   39  110    2.52816    0.64117  74.6%  25.5   90s
     42900  9951    2.27730   54   48    2.52816    0.70081  72.3%  25.5   95s
     45799 10231    1.98131   73   61    2.52816    0.76464  69.8%  25.5  100s
     48795 10619    0.84205   84   79    2.52816    0.80777  68.0%  25.4  105s
     51848 10763    0.90565   47   97    2.52816    0.86631  65.7%  25.3  110s
     54915 10812    2.29233   65   55    2.52816    0.96828  61.7%  25.3  115s
     57767 11016     cutoff   67         2.52816    1.01886  59.7%  25.2  120s
     60755 11086    1.81016   59   79    2.52816    1.08197  57.2%  25.0  125s
     63666 11016    1.50414   45  106    2.52816    1.14370  54.8%  25.0  130s
     66586 10888    1.68394   50   83    2.52816    1.19228  52.8%  24.9  135s
     69513 10769    2.27589   74   42    2.52816    1.25808  50.2%  24.8  140s
     72300 11474    2.24907   57   46    2.52816    1.31281  48.1%  24.3  145s
     75376 11142    1.96979   58   53    2.52816    1.38503  45.2%  24.2  150s
     78213 10812    1.46607   48   90    2.52816    1.45544  42.4%  24.2  155s
     81124 10611    2.42033   80   37    2.52816    1.50958  40.3%  24.0  160s
     84013 10210    1.62171   50   87    2.52816    1.58291  37.4%  23.9  165s
     86896  9623    1.74408   60   66    2.52816    1.66387  34.2%  23.8  170s
    H87781  9229                       2.5070113    1.69077  32.6%  23.7  171s
    H88415  9284                       2.5070102    1.70389  32.0%  23.6  172s
    H88627  9256                       2.5070102    1.70744  31.9%  23.7  173s
     89520  9413    2.47618  128   45    2.50701    1.72584  31.2%  23.5  175s
     92076 10159    2.04162   65   46    2.50701    1.76417  29.6%  23.2  180s
     94662 10486    1.96488   54   89    2.50701    1.80749  27.9%  22.9  185s
     97139 11112    2.42616   80   40    2.50701    1.83353  26.9%  22.5  190s
     99796 12305     cutoff   67         2.50701    1.84319  26.5%  22.0  195s
     102953 12921    2.33743   73   41    2.50701    1.88516  24.8%  21.6  200s
     106517 14162    2.18466   69   42    2.50701    1.91605  23.6%  21.1  205s
     110047 15529     cutoff   72         2.50701    1.93616  22.8%  20.6  210s
     113517 16668     cutoff   89         2.50701    1.95482  22.0%  20.1  215s
     117103 17763    1.98699   75   41    2.50701    1.98199  20.9%  19.7  220s
     120390 18840     cutoff   81         2.50701    1.99345  20.5%  19.3  225s
     123972 20100    2.46889   67   38    2.50701    2.00699  19.9%  18.9  230s
     127411 21262     cutoff   85         2.50701    2.02224  19.3%  18.5  235s
     131130 23206    2.46496  120   41    2.50701    2.02719  19.1%  18.1  240s
     134563 24498    2.27113   80   37    2.50701    2.03435  18.9%  17.7  245s
     137961 25978    2.33152   70   38    2.50701    2.03830  18.7%  17.4  250s
     141388 27032    2.21895   84   40    2.50701    2.04572  18.4%  17.1  255s
     144911 28161    2.42525   84   38    2.50701    2.05352  18.1%  16.8  260s
     148336 29142    2.40998   76   41    2.50701    2.06000  17.8%  16.5  265s
     151863 30475    2.31059   69   46    2.50701    2.06585  17.6%  16.2  270s
     155474 31697     cutoff  111         2.50701    2.07205  17.3%  15.9  275s
     158889 32949    2.39109   87   37    2.50701    2.07759  17.1%  15.7  280s
     162388 34112    2.08342   59   42    2.50701    2.08342  16.9%  15.5  285s
     165854 35377    2.30932   87   37    2.50701    2.08640  16.8%  15.2  290s
     169192 36588     cutoff   83         2.50701    2.09094  16.6%  15.0  295s
    
    Cutting planes:
      Learned: 101
      Gomory: 2
      Implied bound: 57
      Projected implied bound: 2
      MIR: 13
      Flow cover: 49
      RLT: 12
      Relax-and-lift: 8
      PSD: 2
    
    Explored 172596 nodes (2556241 simplex iterations) in 300.00 seconds (208.84 work units)
    Thread count was 1 (of 96 available processors)
    
    Solution count 10: 2.50701 2.50701 2.50701 ... 2.52817
    
    Time limit reached
    Best objective 2.507010218255e+00, best bound 2.094676167745e+00, gap 16.4472%
    
    User-callback calls 172675, time in user-callback 0.01 sec

--- Reading solution for model GAMS_MODEL
***
*** Solver did not provide marginals for model GAMS_MODEL
***
--- Executing after solve: elapsed 0:05:00.086
--- model.gms(4540) 4 Mb
--- model.gms(6601) 6 Mb
--- Putfile results /local/scratch/a/sgusev/repos/k_means/data/gams_gurobi_gdp.hull/no_mode/2026-02-14_20-05-42/original/results.dat
--- Putfile statresults /local/scratch/a/sgusev/repos/k_means/data/gams_gurobi_gdp.hull/no_mode/2026-02-14_20-05-42/original/resultsstat.dat
*** Status: Normal completion
--- Job model.gms Stop 02/14/26 20:10:43 elapsed 0:05:00.089
Original problem solved. Time taken: 300.6932122707367 seconds
Original objective value: 2.507010218255405
